c NeuroCodeBench 2.0 CNF formula with verdict Sat
p cnf 9 14
5 -8 0
2 5 7 -9 0
1 7 -5 0
1 8 -2 -7 0
8 2 -1 -6 0
7 0
8 7 5 1 -9 -6 0
7 1 4 -6 -9 0
4 -7 -9 0
6 9 1 7 -5 -4 -3 -2 0
8 2 -6 -9 -4 0
6 3 2 8 7 -9 -1 0
7 8 0
5 8 4 3 1 -6 -9 0
